Route #1: 19 14 37 29 15 5 32 42 9 38 28 12 43 33 7 27 13
Route #2: 16 22 2 26 48 23 10 51 21 31 50 24 47 46 45 25
Route #3: 1 4 34 49 36 20
Route #4: 3 18 41 17 44 40 35 11 6 39 30 8
Route #5: 
Route #6: 
Route #7: 
cost 1514.592415304247
